(declare-const income Real)
(declare-const p2 Real)
(declare-const fee_bl Real)
(declare-const p1 Real)
(assert (= p1 (* 0.0195 (ite (> income 244825) 244825 income))))
(assert (= p2 (ite (> income 244825) (* 0.025 (- income 244825)) 0)))
(assert (= fee_bl (+ p1 p2)))